9
0 23 21 19 38 32 6 20 26 
23 0 4 38 59 54 18 43 22 
21 4 0 35 57 52 16 42 18 
19 38 35 0 22 19 21 19 29 
38 59 57 22 0 10 42 25 49 
32 54 52 19 10 0 36 16 47 
6 18 16 21 42 36 0 26 21 
20 43 42 19 25 16 26 0 43 
26 22 18 29 49 47 21 43 0 
